
Gurobi 8.1.1 (win64) logging started 11/25/19 17:50:34

Changed value of parameter LogFile to logs/full/qp/full-06-30-1.log
   Prev: gurobi.log  Default: 
Changed value of parameter LogToConsole to 0
   Prev: 1  Min: 0  Max: 1  Default: 1
Changed value of parameter TimeLimit to 3600.0
   Prev: 1e+100  Min: 0.0  Max: 1e+100  Default: 1e+100
Optimize a model with 1 rows, 531 columns and 1 nonzeros
Model has 15 quadratic constraints
Variable types: 0 continuous, 531 integer (531 binary)
Coefficient statistics:
  Matrix range     [1e+00, 1e+00]
  QMatrix range    [1e+00, 1e+00]
  Objective range  [1e+00, 1e+00]
  Bounds range     [1e+00, 1e+00]
  RHS range        [1e+00, 1e+00]
  QRHS range       [1e+00, 1e+00]
Found heuristic solution: objective 531.0000000
Presolve removed 1 rows and 1 columns
Presolve time: 0.01s
Presolved: 0 rows, 530 columns, 0 nonzeros
Variable types: 0 continuous, 530 integer (530 binary)

Root relaxation: objective 1.000000e+00, 0 iterations, 0.00 seconds

    Nodes    |    Current Node    |     Objective Bounds      |     Work
 Expl Unexpl |  Obj  Depth IntInf | Incumbent    BestBd   Gap | It/Node Time

     0     0    2.00000    0    2  531.00000    2.00000   100%     -    0s
H    0     0                      12.0000000    2.00000  83.3%     -    0s
     0     0    2.00000    0    2   12.00000    2.00000  83.3%     -    0s
     0     2    2.00000    0    2   12.00000    2.00000  83.3%     -    0s
H   30    16                      11.0000000    2.00000  81.8%   1.3    0s
H   72    33                      10.0000000    2.00000  80.0%   1.3    1s
H  154    68                       9.0000000    2.00000  77.8%   1.3    2s
H  188    79                       7.0000000    2.00000  71.4%   1.3    3s
   230    92    2.00000   54    2    7.00000    2.00000  71.4%   1.3    5s
   361   168    2.00000   86    2    7.00000    2.00000  71.4%   1.3   10s
   466   217    2.00000  113    -    7.00000    2.00000  71.4%   1.3   16s
   564   262    2.00000  136    2    7.00000    2.00000  71.4%   1.3   22s
   628   292    2.00000  151    2    7.00000    2.00000  71.4%   1.3   26s
   695   327    2.00000  167    -    7.00000    2.00000  71.4%   1.3   31s
   747   356    2.00000  181    2    7.00000    2.00000  71.4%   1.3   36s
   824   387    2.00000  200    2    7.00000    2.00000  71.4%   1.3   42s
   853   405    2.00000  206    2    7.00000    2.00000  71.4%   1.3   45s
   915   440    2.00000  223    2    7.00000    2.00000  71.4%   1.3   51s
   974   457    2.00000  242    -    7.00000    2.00000  71.4%   1.3   55s
  1021   487    2.00000  251    2    7.00000    2.00000  71.4%   1.3   62s
  1067   504    2.00000  262    -    7.00000    2.00000  71.4%   1.3   65s
  1109   536    2.00000  280    -    7.00000    2.00000  71.4%   1.2   70s
  1168   564    2.00000  288    2    7.00000    2.00000  71.4%   1.3   77s
  1215   577    2.00000  298    -    7.00000    2.00000  71.4%   1.3   81s
  1243   598    2.00000  305    -    7.00000    2.00000  71.4%   1.3   86s
  1293   612    2.00000  318    2    7.00000    2.00000  71.4%   1.3   91s
  1327   638    2.00000  327    -    7.00000    2.00000  71.4%   1.3   95s
  1366   654    2.00000  336    2    7.00000    2.00000  71.4%   1.3  101s
  1414   675    2.00000  348    2    7.00000    2.00000  71.4%   1.3  107s
  1463   698    2.00000  360    -    7.00000    2.00000  71.4%   1.3  111s
  1492   724    2.00000  369    2    7.00000    2.00000  71.4%   1.3  116s
  1546   737    2.00000  381    -    7.00000    2.00000  71.4%   1.3  122s
  1586   743    2.00000  391    -    7.00000    2.00000  71.4%   1.3  129s
  1644   779    5.00000  397    -    7.00000    2.00000  71.4%   1.3  133s
  1691   851    2.00000   15    2    7.00000    2.00000  71.4%   1.3  219s
  1693   852    2.14674  342 7651    7.00000    2.14674  69.3%   1.3  497s
  1695   855    3.00000  376    2    7.00000    2.14674  69.3%  61.2  671s
  1697   856    3.00000  387 8097    7.00000    2.14899  69.3%  61.1  705s
  1698   857    3.00000  114 5088    7.00000    2.30377  67.1%  61.1  733s
  1699   858    3.00000  333 4800    7.00000    3.00000  57.1%  61.0  813s
  1700   858    3.00000  184 4652    7.00000    3.00000  57.1%  61.0  817s
  1701   859    3.00000   10 4483    7.00000    3.00000  57.1%  60.9  908s
  1702   860    3.00000  362 4267    7.00000    3.00000  57.1%  60.9  913s
  1703   860    4.00000   19 4532    7.00000    3.00000  57.1%  60.9 1010s
  1704   861    3.00000  328 4375    7.00000    3.00000  57.1%  60.8 1015s
  1705   862    3.00000  131 4302    7.00000    3.00000  57.1%  60.8 1091s
  1706   862    3.00000  260 4266    7.00000    3.00000  57.1%  60.8 1096s
  1707   863    3.00000  108 4372    7.00000    3.00000  57.1%  60.7 1192s
  1708   864    3.00000  202 4231    7.00000    3.00000  57.1%  60.7 1196s
  1709   864    3.00000  103 4368    7.00000    3.00000  57.1%  60.7 1269s
  1710   865    3.00000  173 4066    7.00000    3.00000  57.1%  60.6 1274s
  1711   866    3.00000  166 4633    7.00000    3.00000  57.1%  60.6 1357s
  1712   866    3.00000   69 4471    7.00000    3.00000  57.1%  60.6 1363s
  1713   867    3.00000  105 4725    7.00000    3.00000  57.1%  60.5 1412s
  1714   868    3.00000  200 4725    7.00000    3.00000  57.1%  60.5 1479s
  1716   870    3.00000  160    2    7.00000    3.00000  57.1%   593 1521s
  1718   871    3.00000  210 7708    7.00000    3.00000  57.1%   592 1558s
  1719   872    3.00000  333 5413    7.00000    3.00000  57.1%   592 1725s
  1720   873    3.00000  148 5140    7.00000    3.00000  57.1%   592 1835s
  1721   873    3.00000  267 6052    7.00000    3.00000  57.1%   591 1943s
  1722   874    3.00000  320 5557    7.00000    3.00000  57.1%   591 1948s
  1723   875    3.00000  180 5768    7.00000    3.00000  57.1%   591 2040s
  1725   876    3.00000  160 5536    7.00000    3.00000  57.1%   590 2165s
  1726   877    3.00000  193 5056    7.00000    3.00000  57.1%   590 2251s
  1727   877    3.00000    6 4968    7.00000    3.00000  57.1%   589 2256s
  1728   878    3.00000  321 5026    7.00000    3.00000  57.1%   589 2348s
  1729   879    3.00000  285 4869    7.00000    3.00000  57.1%   589 2353s
  1730   879    3.00000  354 4973    7.00000    3.00000  57.1%   588 2436s
  1731   880    3.00000  164 4973    7.00000    3.00000  57.1%   588 2501s
  1732   881    3.00000  103 4973    7.00000    3.00000  57.1%   588 2573s
  1733   884    3.00000   33 4478    7.00000    3.00000  57.1%  1296 2769s
  1735   884    3.00000   34 4461    7.00000    3.00000  57.1%  1324 2772s
  1737   885    3.25594   34 6954    7.00000    3.00000  57.1%  1350 2802s
  1739   886    3.00000   35 4425    7.00000    3.00000  57.1%  1359 2807s
  1741   888    3.25935   35 6944    7.00000    3.00000  57.1%  1386 2837s
  1743   890    3.00000   36 4258    7.00000    3.00000  57.1%  1409 2866s
  1746   890    3.00000   37 4251    7.00000    3.00000  57.1%  1437 2889s
  1749   892    3.00000   38 4141    7.00000    3.00000  57.1%  1477 2918s
  1752   894    3.00000   39 4118    7.00000    3.00000  57.1%  1504 2942s
  1755   894    3.00000   40 4044    7.00000    3.00000  57.1%  1547 2966s
  1758   898    3.00000   41 4043    7.00000    3.00000  57.1%  1574 2991s
  1761   899    3.00000   42 4028    7.00000    3.00000  57.1%  1615 3022s
  1765   902    3.00000   43 3983    7.00000    3.00000  57.1%  1658 3052s
  1769   904    3.00000   44 4005    7.00000    3.00000  57.1%  1702 3079s
  1773   907    3.00000   45 3853    7.00000    3.00000  57.1%  1745 3107s
  1777   910    3.00000   46 3881    7.00000    3.00000  57.1%  1782 3134s
  1781   912    3.00000   47 3869    7.00000    3.00000  57.1%  1819 3157s
  1785   915    3.00000   48 3870    7.00000    3.00000  57.1%  1853 3181s
  1789   918    3.00000   49 3874    7.00000    3.00000  57.1%  1889 3204s
  1793   920    3.00000   50 3824    7.00000    3.00000  57.1%  1926 3230s
  1797   923    3.00000   51 3739    7.00000    3.00000  57.1%  1961 3253s
  1801   926    3.00000   52 3670    7.00000    3.00000  57.1%  1996 3274s
  1805   928    3.00000   53 3643    7.00000    3.00000  57.1%  2030 3301s
  1809   931    3.00000   54 3536    7.00000    3.00000  57.1%  2067 3325s
  1813   933    3.00000   55 3024    7.00000    3.00000  57.1%  2101 3346s
  1818   937    3.22728   56 5981    7.00000    3.00000  57.1%  2154 3371s
  1822   941    3.26027   57 6569    7.00000    3.00000  57.1%  2194 3396s
  1825   941    3.00000   58 2860    7.00000    3.00000  57.1%  2211 3440s
  1832   947    3.00000   60 2873    7.00000    3.00000  57.1%  2263 3482s
  1839   950    3.00000   62 2675    7.00000    3.00000  57.1%  2327 3521s
  1846   957    3.23622   63 6097    7.00000    3.00000  57.1%  2391 3568s
  1853   958    3.00000   65 2620    7.00000    3.00000  57.1%  2438 3600s

Cutting planes:
  Gomory: 2
  Zero half: 15
  Mod-K: 7

Explored 1859 nodes (4594167 simplex iterations) in 3600.02 seconds
Thread count was 4 (of 4 available processors)

Solution count 6: 7 9 10 ... 531

Time limit reached
Best objective 7.000000000000e+00, best bound 3.000000000000e+00, gap 57.1429%
Warning: Q constraint 0 doesn't have a name
